0 0 0 0
0 1 0 0
0 2 2 0
0 3 0 0
0 4 0 1
0 5 2 7
0 6 0 1
0 7 0 5
0 8 2 5
0 9 0 9
0 10 0 13
0 11 0 13
0 12 2 15
0 13 2 1
0 14 0 16
0 15 1 13
0 16 0 20
0 17 0 13
0 18 1 21
0 19 0 15
0 20 0 23
0 21 0 21
0 22 0 24
0 23 0 18
0 24 0 20
0 25 0 27
0 26 0 19
0 27 0 34
0 28 0 35
0 29 2 19
0 30 0 23
0 31 0 36
